NAME: berlin52
TYPE: TSP
COMMENT: 52 locations in Berlin (Groetschel)
DIMENSION: 52
EDGE_WEIGHT_TYPE: EUC_2D
NODE_COORD_SECTION

Solução ótima: 7542

Twice-around:  10386
Twice-around:  22272
Shortest-path: 15987

RUN FINISHED; exit value 0; real time: 10ms; user: 0ms; system: 0ms
